1 5 30
4014
  3.6  0.38  10.0 2011.2   0.0
 0.25 268.2  84.3
 0.19 198.8  62.5
 0.36 381.1 119.8
 0.21 220.2  69.2
 0.45 476.3 149.8
  817
 1070
 1155
 1459
 1253
  764
  807
  681
 1359
 1308
  714
  638
 1401
 1329
 1297
 1461
 1377
 1170
  795
  534
 1495
  978
 1275
 1023
  899
 1061
  884
 1208
 1258
 1494
